42
terachem gradient in au, energy -1020.1846583250, grad_rms 0.028175, grad_max 0.083407 on atom 20
 C      -0.0033041875       0.0058792865     -0.0038815155
 H      -0.0019792384      -0.0025764040      0.0042062736
 H       0.0035848159      -0.0030346488     -0.0004232866
 H       0.0017442288       0.0026102010      0.0016919238
 C       0.0012755323       0.0113701712     -0.0010331613
 H      -0.0030522389      -0.0010239716     -0.0040790901
 H      -0.0027068511      -0.0034572300      0.0033450764
 H       0.0033527447      -0.0043119076     -0.0005668498
 C       0.0058439953      -0.0174007871      0.0158746666
 O       0.0055221187       0.0031995824     -0.0136597995
 O      -0.0108049159      -0.0066171809     -0.0009780103
 O       0.0070904558       0.0040319312     -0.0067704336
 O      -0.0224489925       0.0060960490      0.0062941041
 C      -0.0101254593      -0.0080216896      0.0081651844
 C       0.0219379813       0.0028388578     -0.0085312424
 C      -0.0047818900       0.0044127881     -0.0038047418
 C      -0.0131453933      -0.0045729147     -0.0077720332
 H      -0.0012327649      -0.0015420836     -0.0020384761
 C       0.0281957222       0.0681219945     -0.0363792125
 O      -0.0035009226      -0.0513042691      0.0656678433
 C      -0.0122115426      -0.0445105654      0.0379324185
 H       0.0049311403       0.0029665829      0.0024058026
 C       0.0025468409       0.0383500906     -0.0408664475
 H       0.0027572145       0.0035789624     -0.0034307425
 C       0.0141805489       0.0060581443      0.0426950890
 H      -0.0132038950       0.0051063134     -0.0127850023
 N       0.0186942519      -0.0595952453     -0.0337035746
 C       0.0045804368       0.0274252244     -0.0012086295
 H      -0.0019069606       0.0012150893      0.0015435955
 H      -0.0004014251       0.0019468921     -0.0025882024
 C      -0.0043497808      -0.0034718053      0.0022774146
 H       0.0021309609       0.0043236192     -0.0026973159
 H      -0.0022097449      -0.0045967957      0.0011393790
 H      -0.0024684656      -0.0036809580     -0.0032772118
 C      -0.0292399071       0.0137209532      0.0044441604
 H       0.0050727445      -0.0020199690      0.0010725050
 H       0.0081565376       0.0044189686      0.0042630664
 C       0.0015002698      -0.0022749686     -0.0012402140
 H      -0.0003068663       0.0009514667     -0.0061683382
 H      -0.0032870449       0.0049101584     -0.0005700418
 H      -0.0031503049      -0.0014356440     -0.0001014601
 H       0.0015789948      -0.0039301647     -0.0043836276
