42
terachem gradient in au, energy -1007.1008973278, grad_rms 0.047061, grad_max 0.138705 on atom 20
 C       0.0107613850       0.0020872336      0.0167328501
 H      -0.0045085747      -0.0055511323      0.0094872896
 H       0.0089135444      -0.0065237385     -0.0006081056
 H       0.0037402345       0.0081501307      0.0015113387
 C      -0.0047103689      -0.0118011514     -0.0057959979
 H      -0.0062396405      -0.0012450193     -0.0099452065
 H      -0.0067678366      -0.0067500356      0.0083289934
 H       0.0086356813      -0.0092112986     -0.0016580100
 C       0.0030239693       0.0034156663      0.0155311930
 O       0.0239147239      -0.0539577067     -0.0514825182
 O      -0.0510287990      -0.0668467520      0.0157903529
 O       0.0389080151       0.0739220049     -0.0213167990
 O      -0.0740113363       0.0429453103      0.0259946402
 C      -0.0286345353       0.0127907756      0.0316179535
 C       0.0472778366       0.0249259367     -0.0139270192
 C       0.0101891459       0.0180086842     -0.0119098614
 C      -0.0322184014      -0.0075053757     -0.0193251667
 H      -0.0111872432       0.0000994119     -0.0018714638
 C       0.0331653115       0.0880782655     -0.0467546632
 O       0.0051059949      -0.0803288907      0.1129614750
 C      -0.0104115529      -0.0354702871      0.0333336346
 H       0.0093303265       0.0083701711      0.0069616913
 C       0.0042296403       0.0537302791     -0.0402620936
 H       0.0038277523       0.0057850837     -0.0082082465
 C       0.0494320563      -0.0091748531      0.0619291598
 H      -0.0098476850      -0.0062601859     -0.0194260395
 N       0.0020468801      -0.0215043946     -0.0158480438
 C       0.0178561030       0.0357061358     -0.0334486435
 H       0.0075024012       0.0063460652      0.0057868911
 H      -0.0067989145       0.0081873672     -0.0062110588
 C      -0.0024185543      -0.0118908363      0.0000874823
 H       0.0075499350       0.0067505812     -0.0066116957
 H       0.0005085314      -0.0086110788      0.0046435474
 H      -0.0085840009      -0.0039437540     -0.0067362834
 C      -0.0517934588      -0.0184465842     -0.0020157690
 H       0.0010772756      -0.0013746445      0.0105877030
 H       0.0111444286      -0.0012169497      0.0013758204
 C      -0.0081476004       0.0032993389     -0.0079982668
 H       0.0031731839       0.0001565826     -0.0113704688
 H      -0.0037163733       0.0109793901      0.0016548823
 H      -0.0075121417      -0.0046087993      0.0006738320
 H       0.0141085408      -0.0457487083     -0.0221354624
