42
terachem gradient in au, energy -1020.1788848292, grad_rms 0.028215, grad_max 0.083554 on atom 20
 C      -0.0033217821       0.0058928994     -0.0039094051
 H      -0.0019984217      -0.0025918669      0.0042349782
 H       0.0036128990      -0.0030549623     -0.0004294100
 H       0.0017518242       0.0026325069      0.0016968914
 C       0.0012837568       0.0114114692     -0.0010293812
 H      -0.0030714844      -0.0010235689     -0.0041098755
 H      -0.0027296993      -0.0034731593      0.0033746029
 H       0.0033849303      -0.0043364815     -0.0005717313
 C       0.0058487263      -0.0174017031      0.0158845668
 O       0.0055291565       0.0031925828     -0.0136728320
 O      -0.0108169069      -0.0066358218     -0.0009739693
 O       0.0070554280       0.0041511561     -0.0067124038
 O      -0.0224913715       0.0061203469      0.0063099782
 C      -0.0101581208      -0.0080164126      0.0081933184
 C       0.0219920305       0.0028317828     -0.0085523913
 C      -0.0047784532       0.0044152398     -0.0038122177
 C      -0.0131553716      -0.0045918084     -0.0077895075
 H      -0.0012454594      -0.0015391115     -0.0020371474
 C       0.0282116649       0.0682457812     -0.0365077881
 O      -0.0034896569      -0.0513879565      0.0657899735
 C      -0.0122462573      -0.0445871142      0.0379640002
 H       0.0049562360       0.0029962175      0.0024341011
 C       0.0025350957       0.0383697671     -0.0409188244
 H       0.0027604310       0.0035898674     -0.0034397394
 C       0.0142054983       0.0060452124      0.0427404552
 H      -0.0132179704       0.0051135559     -0.0127995769
 N       0.0187046369      -0.0596155696     -0.0337123203
 C       0.0045905738       0.0274248129     -0.0012058414
 H      -0.0018999479       0.0012194304      0.0015492454
 H      -0.0004142550       0.0019600992     -0.0025998351
 C      -0.0043578643      -0.0034624935      0.0023053019
 H       0.0021564197       0.0043400349     -0.0027203028
 H      -0.0022045670      -0.0046185876      0.0011532991
 H      -0.0024948252      -0.0036934328     -0.0032957720
 C      -0.0292666658       0.0137261906      0.0044414014
 H       0.0050766418      -0.0020221144      0.0010796441
 H       0.0081681411       0.0044200265      0.0042660146
 C       0.0015217163      -0.0022943206     -0.0012168574
 H      -0.0002952477       0.0009524147     -0.0062062821
 H      -0.0032945519       0.0049458639     -0.0005602661
 H      -0.0031720976      -0.0014491730     -0.0000991270
 H       0.0016346384      -0.0040460805     -0.0044550113
