42
terachem gradient in au, energy -1020.1788848292, grad_rms 0.050872, grad_max 0.187983 on atom 25
 C       0.0002043079       0.0003094909     -0.0003320144
 H       0.0000167556       0.0001255846     -0.0000775352
 H       0.0001285843       0.0003399419      0.0001327029
 H       0.0003663233      -0.0001888722      0.0005003681
 C       0.0001692406      -0.0002810508      0.0002564198
 H      -0.0000136024       0.0000218256      0.0000004336
 H      -0.0000454880      -0.0000363672     -0.0000252330
 H      -0.0000333147      -0.0000964143     -0.0000789976
 C      -0.0018189970       0.0009313394     -0.0004984665
 O      -0.0022831941       0.0017642306     -0.0000633925
 O       0.0000638660      -0.0031284042      0.0003796391
 O      -0.0078159764      -0.0128813013      0.0035824146
 O      -0.0008027886      -0.0058129071     -0.0024970284
 C       0.0182054582      -0.0007710855     -0.0077040465
 C      -0.0038272543       0.0036676052      0.0018476432
 C       0.0039420943       0.0139857802      0.0088432436
 C      -0.1301078504       0.0526816814      0.0546014139
 H      -0.0141671468      -0.0007643764     -0.0203135486
 C       0.0597527699      -0.0230193787     -0.0132843729
 O      -0.0133410477       0.0023770152      0.0002777625
 C       0.0795120840      -0.0534729882     -0.0533879499
 H      -0.0349532185       0.0175268921      0.0092099813
 C      -0.0584761616       0.0721617632     -0.0108198536
 H      -0.0404298976       0.0189871874      0.0095576597
 C       0.1222388357      -0.1173708953     -0.0813597426
 H      -0.0209592901      -0.0433127562     -0.0040594939
 N       0.0392162659       0.0599406723      0.0952815468
 C      -0.0006904965       0.0140420427      0.0025423263
 H      -0.0012433392      -0.0033390807      0.0022819840
 H      -0.0016487797      -0.0034528589      0.0018116116
 C      -0.0012641129      -0.0124894564      0.0101313998
 H      -0.0016950047       0.0019580142      0.0047467797
 H      -0.0011199186       0.0041383610     -0.0050577089
 H      -0.0007044448       0.0016195192      0.0009538936
 C      -0.0308322395       0.0292285780      0.0174612815
 H       0.0052163078      -0.0021083139     -0.0133314508
 H       0.0228233404       0.0093554997     -0.0033892933
 C      -0.0038935938      -0.0024435310      0.0012183606
 H       0.0001212092       0.0000360370      0.0005808025
 H      -0.0004758150      -0.0010454505      0.0002572362
 H      -0.0000357553       0.0007388307     -0.0005077917
 H      -0.0008735101      -0.0044668780     -0.0005744061
