42
coordinates Written by CommBox::Utils
  C	-0.4309999716  3.4619997717 -2.2599998509
  H	 0.1239999918  3.8719997446 -3.0979997957
  H	-1.3089999137  4.0719997314 -2.0689998635
  H	-0.7459999508  2.4499998384 -2.5109998344
  C	 0.9179999395  4.8419996806 -0.6169999593
  H	 1.4879999019  4.7869996843  0.3049999799
  H	 1.5459998980  5.2459996540 -1.4029999075
  H	 0.0509999966  5.4759996388 -0.4709999689
  C	 0.4619999695  3.4499997725 -1.0189999328
  O	-0.2609999828  2.9079998082  0.0809999947
  O	 1.6349998922  2.6719998238 -1.2709999162
  O	-1.4609999036  1.1879999216  0.8239999457
  O	 2.5429998323  0.6869999547 -1.5359998987
  C	-0.4469999705  1.5779998959  0.0679999955
  C	 1.5659998967  1.3319999121 -1.1889999216
  C	 0.3809999749  0.7399999512 -0.6029999602
  C	 0.2239999852 -0.7419999511 -0.7559999501
  H	 1.2109999201 -1.1339999252 -1.0279999322
  C	-0.6559999567 -1.1219999260 -1.9449998717
  O	-0.7849999482 -0.4619999695 -2.9579998049
  C	-1.2569999171 -2.4029998415 -1.5999998945
  H	-1.8009998812 -2.9949998025 -2.3139998474
  C	-1.0429999312 -2.6819998231 -0.3119999794
  H	-1.3549999106 -3.5779997640  0.1939999872
  C	-0.3319999781 -1.5719998963  0.4129999728
  H	-1.1189999262 -0.9659999363  0.8969999408
  N	 0.6229999589 -2.0509998647  1.4069999072
  C	-0.0589999961 -2.4609998377  2.6309998265
  H	-0.9649999364 -2.9899998028  2.3359998459
  H	 0.5849999614 -3.1779997904  3.1429997927
  C	-0.4289999717 -1.3219999128  3.5879997634
  H	-1.2109999201 -1.6499998912  4.2659997186
  H	-0.7899999479 -0.4599999697  3.0319998000
  H	 0.4249999720 -0.9999999340  4.1739997247
  C	 1.7579998841 -1.1739999226  1.6489998912
  H	 2.2649998506 -0.9999999340  0.6969999540
  H	 1.4519999042 -0.1889999875  2.0399998655
  C	 2.7629998178 -1.8139998804  2.5979998286
  H	 2.4099998410 -1.8089998807  3.6219997611
  H	 2.9389998062 -2.8399998127  2.2949998486
  H	 3.7019997558 -1.2669999164  2.5559998314
  H	-1.8119998805  1.9579998709  1.3109999135
