42
terachem gradient in au, energy -1007.1008973278, grad_rms 0.050855, grad_max 0.188096 on atom 25
 C       0.0002039574       0.0003077177     -0.0003306093
 H       0.0000166255       0.0001252379     -0.0000768769
 H       0.0001287021       0.0003393807      0.0001325653
 H       0.0003656832      -0.0001885731      0.0004994113
 C       0.0001687695      -0.0002816657      0.0002566212
 H      -0.0000137459       0.0000217280      0.0000001196
 H      -0.0000457190      -0.0000366626     -0.0000251083
 H      -0.0000332233      -0.0000965474     -0.0000790548
 C      -0.0018161221       0.0009322400     -0.0004995834
 O      -0.0022845371       0.0017535122     -0.0000566294
 O       0.0000608657      -0.0031308931      0.0003810827
 O      -0.0078084474      -0.0128822207      0.0035824484
 O      -0.0008141692      -0.0058031452     -0.0024927927
 C       0.0181937469      -0.0007673549     -0.0077100185
 C      -0.0038091850       0.0036662043      0.0018385608
 C       0.0039128800       0.0139667676      0.0088317070
 C      -0.1299436431       0.0526052261      0.0544852936
 H      -0.0141492185      -0.0007534267     -0.0202688897
 C       0.0596910531      -0.0229997569     -0.0132747066
 O      -0.0133069311       0.0023747942      0.0002616818
 C       0.0792715459      -0.0533368946     -0.0532931260
 H      -0.0349283208       0.0175170919      0.0092000611
 C      -0.0584776497       0.0722110837     -0.0108410518
 H      -0.0403659960       0.0189547405      0.0095432819
 C       0.1222423660      -0.1175071341     -0.0814177596
 H      -0.0209518549      -0.0433255066     -0.0040413822
 N       0.0392427083       0.0599811963      0.0953492986
 C      -0.0006898679       0.0140641908      0.0025443287
 H      -0.0012437322      -0.0033425365      0.0022841462
 H      -0.0016493889      -0.0034548010      0.0018117662
 C      -0.0012652802      -0.0125024552      0.0101429680
 H      -0.0016967722       0.0019598940      0.0047520000
 H      -0.0011198448       0.0041410992     -0.0050609332
 H      -0.0007055376       0.0016214058      0.0009550494
 C      -0.0308641730       0.0292550966      0.0174777347
 H       0.0052173072      -0.0021106197     -0.0133391399
 H       0.0228409890       0.0093653774     -0.0033876547
 C      -0.0038980424      -0.0024455646      0.0012195341
 H       0.0001215264       0.0000359374      0.0005815605
 H      -0.0004763028      -0.0010462483      0.0002571351
 H      -0.0000356055       0.0007394756     -0.0005084479
 H      -0.0008714475      -0.0044722371     -0.0005731058
