42
terachem gradient in au, energy -1020.1846583249, grad_rms 0.050859, grad_max 0.188072 on atom 25
 C       0.0002040673       0.0003081796     -0.0003309739
 H       0.0000166535       0.0001253125     -0.0000770544
 H       0.0001286695       0.0003395061      0.0001325971
 H       0.0003658213      -0.0001886535      0.0004996432
 C       0.0001688858      -0.0002814855      0.0002565506
 H      -0.0000137091       0.0000217513      0.0000002035
 H      -0.0000456536      -0.0000365824     -0.0000251424
 H      -0.0000332441      -0.0000965112     -0.0000790364
 C      -0.0018168786       0.0009319764     -0.0004991961
 O      -0.0022840017       0.0017562937     -0.0000586764
 O       0.0000616168      -0.0031302790      0.0003806834
 O      -0.0078107625      -0.0128826750      0.0035821907
 O      -0.0008112552      -0.0058053354     -0.0024937813
 C       0.0181966751      -0.0007682417     -0.0077083307
 C      -0.0038136021       0.0036664551      0.0018406254
 C       0.0039203953       0.0139714133      0.0088344927
 C      -0.1299818964       0.0526233881      0.0545137437
 H      -0.0141537130      -0.0007564214     -0.0202796972
 C       0.0597071344      -0.0230061803     -0.0132775879
 O      -0.0133159583       0.0023760020      0.0002660369
 C       0.0793287437      -0.0533680669     -0.0533158373
 H      -0.0349355933       0.0175203049      0.0092029844
 C      -0.0584753441       0.0721982779     -0.0108344398
 H      -0.0403824763       0.0189632505      0.0095472323
 C       0.1222454965      -0.1174758022     -0.0814045245
 H      -0.0209556950      -0.0433231512     -0.0040466175
 N       0.0392326227       0.0599744131      0.0953316276
 C      -0.0006899361       0.0140575228      0.0025438477
 H      -0.0012434501      -0.0033416371      0.0022836098
 H      -0.0016492501      -0.0034543937      0.0018117118
 C      -0.0012648520      -0.0124990073      0.0101399410
 H      -0.0016962377       0.0019593639      0.0047505848
 H      -0.0011197985       0.0041402553     -0.0050600843
 H      -0.0007052560       0.0016209063      0.0009547584
 C      -0.0308554057       0.0292488522      0.0174734684
 H       0.0052168965      -0.0021101287     -0.0133368810
 H       0.0228363946       0.0093625819     -0.0033880024
 C      -0.0038970382      -0.0024451897      0.0012192644
 H       0.0001214624       0.0000359217      0.0005813565
 H      -0.0004761207      -0.0010460307      0.0002572014
 H      -0.0000357233       0.0007393087     -0.0005083174
 H      -0.0008719827      -0.0044700065     -0.0005727532
