42
coordinates Written by CommBox::Utils
  C	-0.4309968909  3.4620030627 -2.2599945419
  H	 0.1239680582  3.8719597401 -3.0979323946
  H	-1.3089383955  4.0719526841 -2.0690049402
  H	-0.7459729557  2.4500528018 -2.5109840676
  C	 0.9179985205  4.8419995026 -0.6170027805
  H	 1.4879541663  4.7869885161  0.3049309509
  H	 1.5459532627  5.2459494128 -1.4029424465
  H	 0.0510590048  5.4759330763 -0.4710109199
  C	 0.4620036330  3.4499939950 -1.0189869587
  O	-0.2609908547  2.9079840685  0.0809797945
  O	 1.6349807180  2.6719770432 -1.2709953230
  O	-1.4609856399  1.1880240946  0.8239912360
  O	 2.5429699207  0.6870151620 -1.5359898862
  C	-0.4470159827  1.5780018661  0.0680164304
  C	 1.5660284906  1.3320113821 -1.1890091994
  C	 0.3810022087  0.7400092138 -0.6030064521
  C	 0.2239812449 -0.7420049407 -0.7560111443
  H	 1.2109387876 -1.1340070262 -1.0280191773
  C	-0.6559746078 -1.1219353978 -1.9450342153
  O	-0.7849994505 -0.4620407879 -2.9579444133
  C	-1.2570092630 -2.4030328826 -1.5999704536
  H	-1.8009296849 -2.9949440018 -2.3139537397
  C	-1.0429971318 -2.6819617836 -0.3120334946
  H	-1.3549674988 -3.5779536733  0.1939426990
  C	-0.3319736990 -1.5720011839  0.4130431943
  H	-1.1191133883 -0.9660056158  0.8968413949
  N	 0.6230073041 -2.0510285852  1.4069823591
  C	-0.0589907273 -2.4609737574  2.6309855091
  H	-0.9649723950 -2.9899625860  2.3360359273
  H	 0.5849645206 -3.1779499086  3.1429564819
  C	-0.4290027678 -1.3220062593  3.5880007403
  H	-1.2109522698 -1.6499453829  4.2659538988
  H	-0.7900083214 -0.4600649801  3.0320282642
  H	 0.4249455706 -1.0000374636  4.1739504373
  C	 1.7579664082 -1.1740018748  1.6490008944
  H	 2.2650301216 -1.0000166427  0.6970573467
  H	 1.4520949055 -0.1889842269  2.0400276206
  C	 2.7629970717 -1.8139994572  2.5979960121
  H	 2.4100139493 -1.8089944268  3.6219134334
  H	 2.9389653346 -2.8399216028  2.2950051883
  H	 3.7019472742 -1.2670296678  2.5560026487
  H	-1.8119226649  1.9577553466  1.3108693840
