42
coordinates Written by CommBox::Utils
  C	-0.4309977487  3.4620002028 -2.2599963947
  H	 0.1239888960  3.8719860830 -3.0979764470
  H	-1.3089779770  4.0719836762 -2.0690013601
  H	-0.7459907459  2.4500198963 -2.5109961149
  C	 0.9179989665  4.8419972430 -0.6170011565
  H	 1.4879845458  4.7869966202  0.3049755042
  H	 1.5459832421  5.2459830418 -1.4029794094
  H	 0.0510212495  5.4759769694 -0.4710040494
  C	 0.4620005941  3.4500004780 -1.0189967247
  O	-0.2609962749  2.9079914423  0.0809920125
  O	 1.6349919803  2.6719894594 -1.2709974679
  O	-1.4609938711  1.1880113830  0.8239966406
  O	 2.5429883571  0.6870066132 -1.5359958683
  C	-0.4470058852  1.5780025379  0.0680065264
  C	 1.5660096622  1.3320050608 -1.1890027983
  C	 0.3810020795  0.7400036710 -0.6030024203
  C	 0.2239933303 -0.7420015013 -0.7560039419
  H	 1.2109723878 -1.1339996805 -1.0280045380
  C	-0.6559931062 -1.1219817329 -1.9450095292
  O	-0.7849991566 -0.4620124242 -2.9579822907
  C	-1.2570020677 -2.4030071681 -1.5999930092
  H	-1.8009769188 -2.9949792031 -2.3139827143
  C	-1.0429990576 -2.6819887248 -0.3120082958
  H	-1.3549904903 -3.5779855266  0.1939797863
  C	-0.3319897676 -1.5720017914  0.4130127646
  H	-1.1190241618 -0.9660153429  0.8969521324
  N	 0.6230003213 -2.0510036725  1.4069971010
  C	-0.0589963078 -2.4609924624  2.6309929175
  H	-0.9649814726 -2.9899841848  2.3360140878
  H	 0.5849832290 -3.1779796409  3.1429845070
  C	-0.4290004713 -1.3220023689  3.5879997814
  H	-1.2109813394 -1.6499832777  4.2659834469
  H	-0.7899986964 -0.4600211619  3.0320112280
  H	 0.4249788463 -1.0000096398  4.1739831464
  C	 1.7579891858 -1.1740037328  1.6489994749
  H	 2.2650025018 -1.0000033171  0.6970260109
  H	 1.4520273312 -0.1890029825  2.0400032514
  C	 2.7629981348 -1.8139991989  2.5979981766
  H	 2.4100076504 -1.8089994953  3.6219717778
  H	 2.9389906600 -2.8399727919  2.2950039214
  H	 3.7019812681 -1.2670112589  2.5560014898
  H	-1.8119651587  1.9578872810  1.3109454371
